p edge 41 232
e 1 6
e 1 9
e 1 11
e 1 13
e 1 18
e 1 20
e 1 23
e 1 28
e 1 33
e 2 5
e 2 16
e 2 18
e 2 20
e 2 21
e 2 22
e 2 27
e 2 28
e 2 31
e 2 32
e 2 36
e 2 38
e 2 41
e 3 5
e 3 13
e 3 18
e 3 19
e 3 20
e 3 24
e 3 39
e 4 8
e 4 10
e 4 19
e 4 23
e 4 25
e 4 26
e 4 30
e 4 32
e 4 41
e 5 9
e 5 11
e 5 20
e 5 21
e 5 23
e 5 24
e 5 25
e 5 26
e 5 28
e 5 29
e 5 30
e 5 37
e 5 38
e 5 40
e 6 7
e 6 12
e 6 15
e 6 21
e 7 10
e 7 12
e 7 22
e 7 23
e 7 30
e 7 32
e 8 17
e 8 21
e 8 26
e 8 28
e 8 37
e 9 13
e 9 17
e 9 19
e 9 20
e 9 23
e 9 26
e 9 28
e 9 30
e 9 32
e 9 35
e 9 37
e 9 39
e 10 13
e 10 14
e 10 25
e 10 29
e 10 30
e 10 32
e 10 34
e 10 37
e 10 38
e 10 39
e 10 41
e 11 12
e 11 13
e 11 22
e 11 26
e 11 31
e 11 35
e 11 36
e 11 37
e 11 39
e 12 13
e 12 15
e 12 16
e 12 21
e 12 26
e 12 29
e 12 35
e 13 16
e 13 17
e 13 19
e 13 20
e 13 21
e 13 22
e 13 23
e 13 26
e 13 28
e 13 32
e 13 36
e 13 39
e 14 15
e 14 18
e 14 21
e 14 26
e 14 31
e 14 37
e 14 38
e 14 39
e 15 27
e 15 31
e 15 36
e 15 37
e 15 38
e 15 39
e 15 40
e 16 18
e 16 20
e 16 24
e 16 26
e 16 27
e 16 28
e 16 33
e 16 35
e 16 36
e 16 37
e 17 21
e 17 26
e 17 27
e 17 30
e 17 34
e 17 37
e 17 38
e 18 20
e 18 21
e 18 25
e 18 32
e 18 34
e 18 35
e 18 38
e 19 26
e 19 28
e 19 31
e 19 39
e 19 40
e 20 21
e 20 31
e 20 34
e 20 39
e 20 41
e 21 22
e 21 23
e 21 24
e 21 26
e 21 33
e 21 36
e 21 37
e 21 39
e 22 23
e 22 29
e 22 34
e 23 27
e 23 28
e 23 29
e 23 32
e 24 25
e 24 29
e 24 31
e 24 33
e 24 34
e 24 40
e 24 41
e 25 26
e 25 27
e 25 31
e 25 34
e 25 37
e 25 39
e 25 40
e 26 28
e 26 36
e 26 39
e 26 41
e 27 29
e 27 35
e 27 36
e 27 38
e 27 39
e 27 41
e 28 32
e 28 34
e 28 38
e 29 32
e 29 34
e 29 35
e 29 36
e 29 38
e 30 38
e 30 40
e 31 33
e 31 35
e 31 40
e 32 33
e 32 37
e 32 40
e 33 38
e 33 39
e 34 37
e 35 38
e 35 40
e 36 41
e 37 39
e 38 39
e 39 40
e 39 41
